57
R05E006_P_N; geometry embedded in final neutral Q-Chem input
C  -5.3697917946 -0.1439861174 -1.2509667924
C  -4.6335401389 -0.4057281006  0.0639001046
C  -3.1450281410 -0.4814051965 -0.1433710906
C  -2.2702570025  0.3779871545  0.4081766003
C  -2.6685987229  1.5557148050  1.2050116234
C  -3.5354317632  2.5207191711  0.6986990070
C  -3.8681218012  3.6325445492  1.4513279499
C  -3.3383196205  3.7989600662  2.7197608250
C  -2.4648114204  2.8511621084  3.2280140127
C  -2.1275144723  1.7420979726  2.4750333041
C  -0.8096887444  0.1970722243  0.2996579755
C   0.0060916073  1.2831181287  0.0031113954
C   1.3792381357  1.1490837151 -0.1019778374
C   1.9698137956 -0.0915437040  0.1075815756
O   3.3087750735 -0.3470969887  0.0350176545
C   4.1848407096  0.7019860690 -0.3452842949
C   5.6120592858  0.1570572898 -0.4162848971
N   6.2984543273  0.2462303308  0.8618062482
C   7.7288829413  0.0646446288  0.7044461890
C   5.7678923066 -0.6895366395  1.8344746117
C   1.1611776800 -1.1826050637  0.4315343419
C  -0.2045895451 -1.0390302786  0.5252682270
C  -2.6900555268 -1.5660072194 -1.0346811130
C  -1.8740739898 -1.2704486879 -2.1255441834
C  -1.4586257538 -2.2667397844 -2.9878105248
C  -1.8508446363 -3.5786196457 -2.7772987519
C  -2.6661262563 -3.8840662115 -1.7007353262
C  -3.0868809731 -2.8865935224 -0.8402360565
H  -5.1579034156 -0.9339722755 -1.9682647932
H  -5.0541900567  0.8017431283 -1.6856165281
H  -6.4427059370 -0.1052892978 -1.0811132714
H  -4.9798067605 -1.3597481839  0.4693346513
H  -4.8742987182  0.3720124673  0.7886925822
H  -3.9337580124  2.4056197036 -0.2980775380
H  -4.5398785414  4.3736786099  1.0447967128
H  -3.5990521750  4.6664095582  3.3072986331
H  -2.0428703570  2.9794161630  4.2138719971
H  -1.4434622142  1.0045311513  2.8700474981
H  -0.4416520721  2.2526353630 -0.1619598992
H   1.9746282111  2.0150282920 -0.3425673553
H   3.8879585554  1.0806168690 -1.3308641966
H   4.1462053297  1.5181588891  0.3851819327
H   5.5681403003 -0.8792686341 -0.7942715936
H   6.1702942871  0.7637507264 -1.1312737028
H   8.2056058554  0.1904340881  1.6744104910
H   7.9897452279 -0.9304766075  0.3117717873
H   8.1148775852  0.8220593590  0.0250763198
H   5.9383328103 -1.7378618500  1.5412796951
H   6.2490444175 -0.5110103420  2.7944709707
H   4.6980548813 -0.5354781737  1.9427162323
H   1.6344131829 -2.1360342004  0.6064510261
H  -0.8126744784 -1.8912162471  0.7871490889
H  -1.5725831884 -0.2473817551 -2.2958635811
H  -0.8274972571 -2.0193269298 -3.8286424744
H  -1.5243162279 -4.3579720705 -3.4494056476
H  -2.9755132533 -4.9048093049 -1.5301097368
H  -3.7100635387 -3.1412195489  0.0045623641
