33
R05E012_M_N; geometry embedded in final neutral Q-Chem input
C  -3.4906975272 -1.5235599668  2.2661385014
C  -2.8823083273 -0.4344221873  1.8371413975
C  -2.5328908678 -0.1943406601  0.3934175926
C  -3.5287554901  0.8362595722 -0.1810803168
N  -3.4289359397  2.0664400153  0.3089925377
O  -4.3682826932  0.4916784220 -1.0056355551
N  -1.1400270018  0.1916019244  0.2227263270
C  -0.2693490604 -0.6493782879 -0.5786197696
C   1.0431175257  0.1422370020 -0.6841122173
C   2.2730031386 -0.7620314064 -0.7139289473
C   3.5708738687  0.0230326646 -0.8968946839
C   4.7811831916 -0.9024978890 -0.9417154339
C   0.9815045009  1.0718397562  0.5315000386
C  -0.4884123127  1.1665612988  0.8650835211
O  -0.9956260996  2.0078103107  1.6088434792
H  -3.7423101412 -1.6563374096  3.3034397842
H  -3.7715785513 -2.3179305707  1.5950545933
H  -2.6055486080  0.3598984127  2.5148761166
H  -2.6874046089 -1.1135759154 -0.1788165688
H  -2.6851917738  2.2996948573  0.9639635253
H  -4.0605095390  2.7786989565 -0.0218916815
H  -0.1142313773 -1.6084984455 -0.0715696613
H  -0.7248352458 -0.8360239076 -1.5526109925
H   1.0248478781  0.7460454012 -1.5955704116
H   2.1679690675 -1.4719292325 -1.5369091266
H   2.3252061037 -1.3337329577  0.2151232027
H   3.5184391036  0.5961108852 -1.8247249882
H   3.6892479787  0.7308509442 -0.0751111877
H   4.6972966842 -1.6014754457 -1.7706021484
H   5.6957469992 -0.3287575891 -1.0676443576
H   4.8589972296 -1.4733861027 -0.0193181572
H   1.4906636714  0.6379944430  1.3951891773
H   1.3987982236  2.0611231079  0.3559688021
