22
R05E016_M_N; geometry embedded in final neutral Q-Chem input
C  -2.3757961384  0.2663243121 -1.7894897247
C  -1.3449092088  0.5185145627 -0.6972355610
C  -2.0051864120  0.6216769273  0.6936415779
O  -1.3252281329  1.4974506572  1.5619703787
N  -0.3622642329 -0.5497907612 -0.7390719820
C   0.8224097488 -0.5444294163 -0.1214209073
N   1.6078421570 -1.6183178980 -0.3296191432
C   2.7916791177 -1.6104424678  0.2478924718
C   3.2404606238 -0.5550787203  1.0341624398
C   2.3501945984  0.4926853000  1.2040421567
N   1.1514180863  0.5089399442  0.6467328023
H  -3.0674193024  1.1008601938 -1.8449953141
H  -2.9377296886 -0.6384723457 -1.5733302982
H  -1.8839379920  0.1602230769 -2.7522564354
H  -0.8239195741  1.4668214552 -0.8794223360
H  -2.0711378009 -0.3820003388  1.1390672315
H  -3.0147806435  1.0278704308  0.6004277247
H  -0.3685423339  1.3140912719  1.4766146354
H  -0.5879459803 -1.3867977960 -1.2542480269
H   3.4018351030 -2.4867022330  0.0707348093
H   4.2127569401 -0.5582776836  1.4933269455
H   2.5902010659  1.3548515285  1.8124765551
