18
R05E004_M_N; geometry embedded in final neutral Q-Chem input
C  -2.7128444735 -0.6647112321  0.0461789464
N  -1.3451365586 -0.1648653268 -0.0140695664
C  -1.2231234795  1.1842738278 -0.3091896297
O  -2.2016325544  1.8810736654 -0.5005958767
N   0.0455323133  1.7013378379 -0.3771197340
C   1.1221744555  0.9083319863 -0.1600176427
N   2.4301594341  1.2509399093 -0.1857338711
C   3.0640271178  0.1335675636  0.0868072958
Br  4.9122843349 -0.0060253522  0.1899514581
N   2.2511066294 -0.9243147543  0.2895592059
C   0.9718399063 -0.4400641943  0.1335606950
C  -0.3131683690 -1.0680236633  0.2241427930
O  -0.5215981223 -2.2455629870  0.4766918102
H  -3.2653330849 -0.1227809440  0.8116018697
H  -3.2006544249 -0.5071593867 -0.9140405323
H  -2.6673846311 -1.7238809091  0.2837531739
H   0.1517198408  2.6858801888 -0.5930665318
H   2.5020316662 -1.8780162295  0.5115861369
