52
R05E018_M_N; geometry embedded in final neutral Q-Chem input
C  -0.0360663177 -3.3515650944 -0.0321150093
C   0.7306910312 -2.0895499040  0.3539755075
O   0.4477159150 -1.6994421751  1.6828522489
C   0.4599115697 -0.9263114860 -0.6303320405
O  -0.9239367679 -0.8062772421 -0.9709450692
C  -1.7028249704  0.0202215241 -0.1816274509
O  -2.0780963233 -0.6956719332  0.9965523664
C  -2.9433107210  0.0060048388  1.8651027320
C  -2.2583271446  1.1995447016  2.5241129947
O  -1.1300545205  1.5642335037  2.2806913410
O  -3.0164344998  1.7451256766  3.4487620474
C  -4.2544428452  0.3927136820  1.1266241257
O  -5.1362138820  1.1491082839  1.9009106837
C  -3.8971676038  1.2262527852 -0.1148989587
O  -3.2785305048  2.4373939074  0.2339942033
C  -2.9449092432  0.4154636617 -0.9989749580
O  -3.6419776681 -0.7015700782 -1.4727020048
C   1.2092193847 -1.0803657198 -1.9816043348
C   1.1411353242  0.2428678910 -2.7663530606
N   1.9579484907  1.2444552579 -2.1269583937
C   3.0307121614  0.9080773212 -1.3811668860
N   3.7247699128  1.9190904984 -0.8052921603
C   4.7503474714  1.6058013617 -0.0580448183
N   5.5006432667  2.5875943919  0.4756638526
N   5.1184534507  0.3147144245  0.1744292111
C   4.4320599948 -0.7774992131 -0.3573677185
O   4.7903148482 -1.9331486266 -0.0488393229
C   3.3661335250 -0.4303072080 -1.2099898962
N   2.6087240316 -1.4195606654 -1.8740045912
H  -1.1017352621 -3.1372765405 -0.0385217465
H   0.2696954291 -3.6936447568 -1.0154044507
H   0.1670997244 -4.1305016364  0.6976946869
H   1.8093786273 -2.2847174374  0.3661129491
H  -0.4960143238 -1.4596997658  1.7189845684
H   0.7883537193 -0.0023883086 -0.1323826486
H  -1.1574710494  0.9327354797  0.1068409846
H  -3.1799863659 -0.7060628174  2.6637348112
H  -2.5863636585  2.4997209630  3.9000598382
H  -4.7130308660 -0.5407704300  0.7720852176
H  -5.4846245047  0.6256857153  2.6360650372
H  -4.8198055767  1.4047544840 -0.6831442281
H  -3.9450311938  3.0008637062  0.6575176489
H  -2.6045062351  1.0523403378 -1.8287920192
H  -3.0145571942 -1.2906378432 -1.9185203765
H   0.7046213904 -1.8615108103 -2.5542884709
H   1.4991965380  0.0522872479 -3.7839162571
H   0.1084311017  0.5912964518 -2.8072208881
H   1.7281222753  2.2194535167 -2.2103280947
H   5.1419592235  3.5229207154  0.3911262705
H   6.1518257089  2.3788802314  1.2114386111
H   5.9005649164  0.0977955941  0.7796864338
H   2.8073902104 -2.3389184621 -1.4991645412
