32
R05E008_M_N; geometry embedded in final neutral Q-Chem input
C  -4.2508270712  1.1378946148 -1.3363992870
C  -3.7612601154  0.0392267319 -0.3931571104
C  -4.3785739391  0.1735439396  0.9814529237
O  -4.6480188506  1.2217427673  1.5277996179
O  -4.5561697383 -1.0020599274  1.5631301823
C  -2.2615568809  0.0980162955 -0.1915560516
C  -1.4383885257 -0.9429427599 -0.5978552694
C  -0.0705101902 -0.8817546932 -0.4272117903
C   0.5430579440  0.2290633332  0.1666398797
N   1.8894092316  0.3437257190  0.3145330394
C   2.8172024760 -0.7368336906  0.0868095358
C   4.2232727842 -0.2822927942  0.2377085293
C   5.2505140060 -1.0843478281  0.5410251591
C   6.6046898688 -0.5862971319  0.6411578999
O   7.5819864098 -1.2605629323  0.9092844953
C  -0.3120493228  1.2617857822  0.5835751075
Cl  0.3705187508  2.6757893581  1.3624094463
C  -1.6767237498  1.2057007757  0.4124276525
H  -3.7018206194  1.0903393888 -2.2720972099
H  -5.3119761059  1.0162626132 -1.5383398080
H  -4.0987465684  2.1145623595 -0.8848045358
H  -4.0251164260 -0.9464575860 -0.7830772390
H  -4.9077337182 -0.9289584612  2.4718059476
H  -1.8730351171 -1.8169109230 -1.0575335576
H   0.5344665493 -1.7089850456 -0.7565788091
H   2.2016589251  1.1033794623  0.9000856391
H   2.6954821684 -1.0884122334 -0.9472271506
H   2.6193766013 -1.5904374008  0.7491317230
H   4.4033874566  0.7700862311  0.0621440528
H   5.1144781252 -2.1406208222  0.7232845246
H   6.7172350892  0.4975453016  0.4556646568
H  -2.2942294475  2.0192095561  0.7630850379
