48
R05E006_M_N; geometry embedded in final neutral Q-Chem input
C  -4.1485535831  0.8684461807  0.2286206963
C  -3.2749554878  0.2613361430 -0.8701019745
C  -1.8107937383  0.3939289087 -0.5493408879
C  -0.9970125286 -0.6578690868 -0.3522577185
C  -1.4676217621 -2.0589100672 -0.3417796360
C  -2.4561669516 -2.4897007683  0.5387709503
C  -2.8591795032 -3.8129164883  0.5504999921
C  -2.2808407412 -4.7249445053 -0.3163754502
C  -1.2885389546 -4.3084896797 -1.1887576780
C  -0.8795871733 -2.9879415907 -1.1964956950
C   0.4597077041 -0.5179959724 -0.1690825424
C   1.1138733061 -1.2743829700  0.8039549510
C   2.4744601275 -1.1662082940  0.9885936738
C   3.2271038008 -0.3043343468  0.1919557909
O   4.5718381991 -0.2700668976  0.4626906281
C   5.3936978542  0.5926577335 -0.2894551508
C   6.8011674338  0.4657435700  0.2132036958
O   7.7459052670  1.0597947576 -0.2380865244
C   2.5925064711  0.4348480055 -0.7979501143
C   1.2241264312  0.3219831304 -0.9706489466
C  -1.3177935964  1.7800960964 -0.4320483564
C  -1.5336292486  2.7178524436 -1.4386842140
C  -1.0820216871  4.0177788774 -1.3007746141
C  -0.4182776413  4.4072334674 -0.1496934038
C  -0.2071132567  3.4859772740  0.8632829456
C  -0.6515389403  2.1850772582  0.7234802394
H  -3.9716903668  0.3698805537  1.1788326414
H  -3.9236934220  1.9255633319  0.3528676207
H  -5.2001162186  0.7631664359 -0.0257768491
H  -3.5348841016 -0.7872323832 -1.0162557235
H  -3.4784974107  0.7906288468 -1.8043372146
H  -2.8970046380 -1.7852956936  1.2281754564
H  -3.6255757763 -4.1340920686  1.2404263887
H  -2.5981420060 -5.7569267960 -0.3087036038
H  -0.8295351714 -5.0166519634 -1.8627806341
H  -0.1032300292 -2.6636442126 -1.8744497842
H   0.5427761396 -1.9450113533  1.4287264430
H   2.9829417694 -1.7414671492  1.7456729786
H   5.3754800506  0.3374747459 -1.3583253591
H   5.0775480727  1.6404392196 -0.1851747162
H   6.9031641955 -0.2369109946  1.0560716354
H   3.1444672278  1.0980530839 -1.4441287100
H   0.7470805745  0.8921822409 -1.7526925093
H  -2.0372633009  2.4236242018 -2.3479823274
H  -1.2491752179  4.7303891735 -2.0951121333
H  -0.0690476768  5.4232593455 -0.0421599566
H   0.3040720644  3.7836914534  1.7670117383
H  -0.4904365595  1.4698868020  1.5166493406
