27
R05E015_M_N; geometry embedded in final neutral Q-Chem input
C   3.6326838498  0.4139507591 -0.9453432561
C   2.1619227179  0.6938167616 -0.6586728366
C   1.4496048763 -0.5599120866 -0.1560889382
C  -0.0024452569 -0.2948094379  0.2764907487
C  -0.9185872957  0.0118874185 -0.9119100488
C  -2.3649939401  0.3087582164 -0.4830703958
C  -2.4796074332  1.5557378743  0.3902968913
O  -2.9216155756 -0.7711738897  0.2533052157
C  -0.5002277196 -1.5363159194  0.9833317637
O  -0.6590603785 -2.6145631871  0.4479447598
O  -0.6709450088 -1.3503184495  2.2805217646
H   4.1416422772  0.0816729610 -0.0435114032
H   3.7322117422 -0.3630572455 -1.6996072784
H   4.1264185110  1.3116804643 -1.3080896552
H   2.0823990623  1.4784061037  0.0959868797
H   1.6844167582  1.0528978418 -1.5705509524
H   1.4546668093 -1.3316062372 -0.9286289911
H   1.9985183814 -0.9521475109  0.7042204243
H  -0.0168584908  0.5276876213  0.9934546302
H  -0.9156176671 -0.8559884565 -1.5763859006
H  -0.5380881693  0.8709143385 -1.4611641059
H  -2.9593322093  0.4651800083 -1.3975133997
H  -3.5268193682  1.8146907352  0.5172581687
H  -2.0614759197  1.3575827563  1.3725590495
H  -1.9577544248  2.3869728459 -0.0718350436
H  -2.9954893416 -1.5467223155 -0.3180723955
H  -0.9755667869 -2.1552219707  2.7421245998
