14
R05E021_P_N; geometry embedded in final neutral Q-Chem input
S  -1.3554127313  2.4819609869 -0.1668855422
C  -0.9873222302  0.7722860890 -0.2157160332
N  -1.9923418777 -0.0847036052 -0.3420983819
C  -1.7194685913 -1.3851524001 -0.3781006026
N  -0.5453528634 -1.9711829913 -0.3030021162
C   0.4814740502 -1.1293492159 -0.1763319035
N   1.8075879574 -1.4195728758 -0.0746430271
C   2.4032933415 -0.2634146843  0.0290875285
N   1.5647983222  0.8004177670  0.0048068341
C   0.3088530840  0.2850917875 -0.1272289922
H  -2.6667393616  2.3330869010 -0.2825001740
H  -2.5767948742 -2.0347418713 -0.4816902580
H   3.4659555526 -0.1617409771  0.1256894969
H   1.8114702218  1.7770150895  0.0695956481
