43
R05E005_P_N; geometry embedded in final neutral Q-Chem input
C  -1.8383882972 -1.0015407710 -1.3294952926
C  -1.5220031326 -1.5906928695  0.0107189298
C  -1.8480685575 -2.9163301100  0.2724171590
C  -1.5918897483 -3.4961607436  1.5016924353
C  -0.9926248965 -2.7489663849  2.4997990634
C  -0.6565044634 -1.4300405541  2.2526588436
C  -0.9173138018 -0.8394235063  1.0225088328
C  -0.5316042844  0.6141563799  0.8077320806
O   0.4170804374  0.7764886299 -0.2397062664
C   1.6760233537  0.2107945587  0.0575873651
C   2.5876446610  0.4455162720 -1.1453185475
N   3.9927144758  0.3003877616 -0.8093267565
C   4.8308796655  0.7895605094 -1.8889134078
C   4.3361880249 -1.0690157501 -0.4741015162
C  -1.7545772457  1.4617991174  0.5308002509
C  -2.8699286137  1.3245552951  1.3492634260
C  -3.9970468492  2.0947326652  1.1286384638
C  -4.0215227994  3.0107863995  0.0896504766
C  -2.9112638785  3.1539852552 -0.7242983116
C  -1.7815016422  2.3848377524 -0.5040699576
H  -1.0454486337 -0.3338836363 -1.6548272319
H  -1.9751059681 -1.7873561777 -2.0680482601
H  -2.7586160858 -0.4201030437 -1.2697271985
H  -2.3148461037 -3.5021609987 -0.5062390315
H  -1.8577436533 -4.5273497547  1.6787864602
H  -0.7842225448 -3.1881984400  3.4633832673
H  -0.1842503216 -0.8446362159  3.0297093391
H  -0.0715586502  0.9849592800  1.7432344144
H   1.5614347030 -0.8608369645  0.2702647985
H   2.1092318737  0.6996227289  0.9431774936
H   2.4220418254  1.4738054550 -1.4757250770
H   2.2842248846 -0.2282854618 -1.9668062363
H   4.6900399155  0.2239989239 -2.8229134644
H   4.5979316767  1.8358932349 -2.0757817718
H   5.8733045592  0.7122482461 -1.5872594020
H   3.7847682404 -1.3759527912  0.4112312918
H   5.4002775709 -1.1187386612 -0.2528050214
H   4.1120345728 -1.7707541248 -1.2928576661
H  -2.8529057178  0.6078397200  2.1576574746
H  -4.8584475331  1.9785895654  1.7690548792
H  -4.9027345414  3.6097152443 -0.0835053562
H  -2.9226426041  3.8671906461 -1.5347391062
H  -0.9130598725  2.4889633190 -1.1348893244
