18
R05E014_M_N; geometry embedded in final neutral Q-Chem input
C   3.0608781581 -0.1291017792  1.0068960319
C   2.1889230633  0.8176388280  0.2139125138
O   2.4520619275  1.9994635009  0.0548949998
N   1.1975080099  0.1808049832 -0.4355830311
C  -0.0560661464  0.0293192741 -0.2687736427
C  -0.8054438499 -0.7544425265 -1.2368762950
C  -2.1331688091 -0.8935931524 -1.1354223421
C  -2.8966213835 -0.2827929180 -0.0389512453
O  -4.1143778832 -0.3923404029  0.0454938490
C  -2.1152981382  0.4668706935  0.9561065110
C  -0.7885471401  0.6054683547  0.8523686230
H   3.5911919576  0.4398381544  1.7649591863
H   3.7876758271 -0.5699391333  0.3276251721
H   2.4705891353 -0.9219134657  1.4555878978
H  -0.2432620690 -1.2011748184 -2.0417416273
H  -2.7061118642 -1.4600155231 -1.8539835343
H  -2.6750844114  0.9009800382  1.7710336209
H  -0.2148463840  1.1649298924  1.5777095879
