31
R05E008_P_N; geometry embedded in final neutral Q-Chem input
C  -3.8392758702 -1.2375442630  0.5878231414
C  -3.2752852453 -0.1570418888 -0.3342831531
C  -3.7369941576  1.2222792758  0.0797174015
O  -3.9287687727  1.5835103599  1.2201271212
O  -3.8697983409  2.0352958297 -0.9580191189
C  -1.7627111619 -0.1191727980 -0.2944018941
C  -1.0731832604  0.1742596348  0.8756530676
C   0.3010240480  0.1869103393  0.9035252121
C   1.0989789525 -0.0899266577 -0.2294749376
N   2.4503445109 -0.0686178413 -0.1086106481
C   3.1035945655  0.2201167184  1.1599042441
C   4.5584114960  0.1228600135  0.8320256959
C   4.7383848488 -0.1792853602 -0.4397660715
C   3.4309869691 -0.3291906240 -1.1496612513
C   0.3703600593 -0.3652333969 -1.4023489379
Cl  1.1169159932 -0.7185260560 -2.9503349218
C  -1.0120857551 -0.3755450909 -1.4295383893
H  -4.9192216152 -1.2985890959  0.4800280106
H  -3.6101177406 -1.0014271062  1.6232411584
H  -3.4006988416 -2.1989240199  0.3370713306
H  -3.5979618256 -0.3232679670 -1.3646649010
H  -4.1147722607  2.9442430883 -0.6968126694
H  -1.6222164182  0.4078195017  1.7753628775
H   0.7815892906  0.4213258180  1.8363488552
H   2.8460468647  1.2235080892  1.5226507494
H   2.8208617184 -0.5099399509  1.9292424371
H   5.3124278720  0.2883257834  1.5780669593
H   5.6702993341 -0.3134214557 -0.9556563481
H   3.3222598330 -1.3385433182 -1.5635602792
H   3.3465170955  0.3889768512 -1.9735954771
H  -1.5059121851 -0.5952344120 -2.3639861152
