38
R05E023_P_N; geometry embedded in final neutral Q-Chem input
C  -4.4624754538 -1.1452534993 -1.3097935523
C  -4.3626701186 -0.3017033244 -0.0437309243
C  -3.1480999619  0.6307739562 -0.0387468496
C  -3.3482590166  1.7341514254  1.0174241051
O  -4.4452105187  2.5729823391  0.7358771001
N  -1.9324852815 -0.1070404841  0.2767601811
C  -0.7160297951  0.4813547645 -0.2529208481
C   0.4812391437 -0.4120056055  0.0607548484
N   1.6973912273  0.1837662505 -0.4611729260
C   2.9114431868 -0.5936055199 -0.2448028768
C   3.9635828246 -0.1220772871 -1.2596947540
C   5.1729587935 -1.0445964723 -1.3596503147
C   3.4106714617 -0.4994943030  1.2137232029
O   3.6134873934  0.8323283400  1.6382180160
H  -3.5749937615 -1.7602250615 -1.4458336985
H  -4.5741545628 -0.5086386425 -2.1851121393
H  -5.3241372648 -1.8045087887 -1.2523822354
H  -5.2594298769  0.3128180817  0.0549298495
H  -4.2990670622 -0.9470626203  0.8338842792
H  -3.0703526305  1.1167637333 -1.0318865463
H  -2.4301900533  2.3248586947  1.1172801435
H  -3.5631688777  1.2714140851  1.9821455297
H  -4.2731090471  3.0518105821 -0.0868881064
H  -2.0154107574 -1.0537477708 -0.0809868193
H  -0.5682052528  1.4542196348  0.2245251897
H  -0.7647934978  0.6471877766 -1.3434538787
H   0.5033919025 -0.5854399389  1.1485102637
H   0.3521114961 -1.3816211335 -0.4316805379
H   1.8285595915  1.0996830110 -0.0375342884
H   2.6758763143 -1.6445800191 -0.4469704922
H   4.2834654577  0.8911171208 -1.0097388726
H   3.4683297160 -0.0715006113 -2.2295805561
H   4.8584457399 -2.0559479434 -1.6049480439
H   5.7308219112 -1.0777129824 -0.4276262246
H   5.8416721039 -0.6938646373 -2.1413269094
H   4.3219143875 -1.0934642403  1.3433836071
H   2.6473861892 -0.9015606549  1.8847648397
H   4.3694939503  1.2004217447  1.1608061688
