42
R05E013_P_N; geometry embedded in final neutral Q-Chem input
O   1.6410595513  1.7627685428  0.6366133294
C   1.8459702645  0.6136870033  0.2807342660
N   0.8274230826 -0.2349355132 -0.0167169817
N  -0.4746335203  0.2193584194  0.0846008669
C  -1.1463193105  0.2986751370  1.2971134858
O  -0.7113975229 -0.1486178811  2.3295900327
C  -2.4621386461  0.9744896836  1.0338701207
C  -3.6337110816 -0.0272231707  1.2762776138
C  -3.4201679505 -1.1592019139  0.3193122675
C  -3.3914933943 -0.8082275188 -0.9597461314
C  -3.5756430726  0.6562790680 -1.2128400284
C  -4.8562927124  1.1485899818 -0.5473156285
C  -5.8886680801  0.1775372359 -0.0598164586
C  -4.8904697847  0.7503678060  0.9003099628
C  -2.4254556123  1.3770011177 -0.4434851500
C  -1.0929433818  0.9050738869 -0.9533835331
O  -0.6083776618  1.0306413610 -2.0503771377
C   3.2077781739  0.0338598626  0.1231471250
C   4.2102443209  0.4746152276  0.9822675417
C   5.4974974297 -0.0140921062  0.8614151825
C   5.7798405955 -0.9409637142 -0.1346784968
C   7.1815449708 -1.4485760336 -0.2983988959
F   7.2394565713 -2.6982065636 -0.7928741975
F   7.8797057811 -1.4694258033  0.8503273308
F   7.9081578180 -0.6884341279 -1.1511559399
C   4.7924348630 -1.3688061853 -1.0144492547
C   3.5044740083 -0.8828552449 -0.8823276101
H   0.9666399444 -1.2241602504 -0.1786995724
H  -2.5772828222  1.8232307987  1.7092825477
H  -3.6375719929 -0.3507467337  2.3168256311
H  -3.2994356450 -2.1657160827  0.6818799169
H  -3.2442025220 -1.4901142095 -1.7797186007
H  -3.5307680028  0.9093111773 -2.2717258508
H  -5.1736188868  2.1347466583 -0.8531009180
H  -6.9024016640  0.5389700673  0.0160512356
H  -5.8140693812 -0.8591313656 -0.3434393955
H  -5.2329627447  1.4453029106  1.6530062175
H  -2.5146453955  2.4529421937 -0.5991935002
H   3.9650767908  1.2012484855  1.7406038294
H   6.2757178211  0.3177652538  1.5299607522
H   5.0332594098 -2.0765737892 -1.7917486832
H   2.7483893916 -1.1904536685 -1.5860016645
